Instance name:    lc102.txt
Authors:          PDPTW Solver
Date:             2026-01-15
Reference:        LNS with SA/RTR
Solution: 0;10;828.937;60.00 s
Route 1 :  43 42 41 40 44 46 45 48 51 50 106 52 49 47
Route 2 :  20 24 25 27 29 30 28 103 26 23 22 21
Route 3 :  67 65 63 62 74 72 61 64 68 102 66 69
Route 4 :  5 3 7 8 10 11 9 6 4 2 1 75
Route 5 :  90 87 86 83 82 84 85 88 89 91
Route 6 :  98 96 95 94 92 93 97 101 100 99
Route 7 :  32 33 31 35 37 38 39 104 36 34
Route 8 :  81 78 105 76 71 70 73 77 79 80
Route 9 :  13 17 18 19 15 16 14 12
Route 10 :  57 55 54 53 56 58 60 59
